p edge 90 805
e 1 4
e 1 5
e 1 10
e 1 11
e 1 15
e 1 27
e 1 50
e 1 64
e 1 65
e 1 69
e 1 71
e 1 78
e 1 85
e 1 89
e 2 21
e 2 27
e 2 28
e 2 39
e 2 40
e 2 44
e 2 47
e 2 48
e 2 53
e 2 56
e 2 59
e 2 63
e 2 64
e 2 67
e 2 69
e 2 75
e 2 78
e 2 79
e 2 80
e 2 83
e 2 89
e 2 90
e 3 12
e 3 15
e 3 22
e 3 23
e 3 30
e 3 34
e 3 38
e 3 40
e 3 42
e 3 44
e 3 62
e 3 85
e 3 87
e 4 5
e 4 15
e 4 16
e 4 27
e 4 33
e 4 36
e 4 61
e 4 64
e 4 66
e 4 68
e 4 72
e 4 76
e 4 77
e 4 79
e 4 89
e 5 7
e 5 8
e 5 11
e 5 13
e 5 14
e 5 16
e 5 19
e 5 20
e 5 25
e 5 32
e 5 35
e 5 41
e 5 45
e 5 64
e 5 66
e 5 68
e 5 73
e 5 78
e 5 79
e 5 82
e 5 86
e 6 28
e 6 32
e 6 44
e 6 47
e 6 48
e 6 49
e 6 50
e 6 51
e 6 52
e 6 61
e 6 67
e 6 69
e 6 73
e 6 80
e 6 86
e 7 10
e 7 11
e 7 12
e 7 16
e 7 17
e 7 22
e 7 24
e 7 25
e 7 33
e 7 36
e 7 49
e 7 50
e 7 61
e 7 63
e 7 64
e 7 73
e 7 82
e 8 10
e 8 14
e 8 16
e 8 17
e 8 18
e 8 20
e 8 23
e 8 24
e 8 25
e 8 29
e 8 32
e 8 34
e 8 38
e 8 40
e 8 41
e 8 46
e 8 48
e 8 56
e 8 59
e 8 77
e 8 82
e 8 84
e 8 86
e 8 89
e 8 90
e 9 15
e 9 25
e 9 30
e 9 33
e 9 34
e 9 35
e 9 38
e 9 41
e 9 43
e 9 44
e 9 51
e 9 52
e 9 53
e 9 63
e 9 65
e 9 72
e 9 74
e 9 75
e 9 86
e 9 88
e 10 13
e 10 16
e 10 24
e 10 28
e 10 35
e 10 37
e 10 39
e 10 40
e 10 44
e 10 57
e 10 59
e 10 61
e 10 75
e 10 76
e 11 16
e 11 23
e 11 28
e 11 30
e 11 32
e 11 34
e 11 38
e 11 43
e 11 46
e 11 51
e 11 53
e 11 57
e 11 59
e 11 75
e 11 78
e 11 83
e 11 84
e 11 86
e 12 14
e 12 17
e 12 18
e 12 22
e 12 25
e 12 29
e 12 33
e 12 40
e 12 46
e 12 52
e 12 68
e 12 78
e 12 80
e 12 86
e 12 87
e 13 26
e 13 27
e 13 40
e 13 47
e 13 56
e 13 58
e 13 59
e 13 60
e 13 61
e 13 63
e 13 70
e 13 86
e 13 88
e 14 15
e 14 23
e 14 27
e 14 39
e 14 42
e 14 45
e 14 48
e 14 56
e 14 58
e 14 62
e 14 64
e 14 66
e 14 78
e 14 82
e 14 84
e 15 22
e 15 30
e 15 32
e 15 40
e 15 41
e 15 42
e 15 44
e 15 48
e 15 51
e 15 55
e 15 60
e 15 65
e 15 73
e 15 76
e 15 80
e 15 87
e 16 18
e 16 31
e 16 36
e 16 58
e 16 66
e 16 75
e 16 77
e 16 80
e 17 18
e 17 22
e 17 23
e 17 35
e 17 37
e 17 38
e 17 53
e 17 62
e 17 65
e 17 69
e 17 83
e 17 88
e 18 19
e 18 21
e 18 27
e 18 31
e 18 34
e 18 36
e 18 47
e 18 50
e 18 51
e 18 53
e 18 55
e 18 57
e 18 58
e 18 59
e 18 71
e 18 77
e 18 81
e 18 85
e 18 89
e 18 90
e 19 28
e 19 38
e 19 43
e 19 44
e 19 51
e 19 56
e 19 66
e 19 70
e 19 88
e 19 89
e 20 28
e 20 31
e 20 33
e 20 34
e 20 35
e 20 40
e 20 43
e 20 47
e 20 53
e 20 54
e 20 55
e 20 56
e 20 58
e 20 59
e 20 60
e 20 62
e 20 63
e 20 66
e 20 68
e 20 76
e 20 87
e 21 32
e 21 36
e 21 41
e 21 43
e 21 47
e 21 49
e 21 54
e 21 55
e 21 57
e 21 58
e 21 65
e 21 72
e 21 76
e 21 78
e 21 86
e 21 87
e 22 23
e 22 33
e 22 36
e 22 43
e 22 46
e 22 48
e 22 60
e 22 66
e 22 67
e 22 71
e 22 73
e 23 33
e 23 34
e 23 35
e 23 37
e 23 41
e 23 47
e 23 51
e 23 52
e 23 54
e 23 60
e 23 62
e 23 63
e 23 64
e 23 67
e 23 69
e 23 74
e 23 80
e 23 82
e 24 60
e 24 64
e 24 69
e 24 71
e 24 73
e 24 77
e 24 78
e 24 79
e 24 83
e 24 86
e 24 87
e 25 30
e 25 44
e 25 54
e 25 55
e 25 60
e 25 66
e 25 69
e 25 72
e 25 75
e 25 77
e 25 84
e 25 85
e 26 35
e 26 36
e 26 42
e 26 52
e 26 54
e 26 57
e 26 65
e 26 68
e 26 83
e 26 84
e 26 88
e 27 30
e 27 31
e 27 47
e 27 50
e 27 55
e 27 63
e 27 66
e 27 69
e 27 70
e 27 75
e 27 76
e 27 80
e 27 90
e 28 32
e 28 35
e 28 43
e 28 45
e 28 48
e 28 59
e 28 64
e 28 66
e 28 71
e 28 75
e 28 86
e 28 87
e 29 41
e 29 58
e 29 65
e 29 67
e 29 73
e 29 82
e 29 84
e 29 89
e 30 32
e 30 34
e 30 44
e 30 50
e 30 52
e 30 54
e 30 57
e 30 68
e 30 75
e 30 79
e 30 82
e 30 86
e 31 32
e 31 35
e 31 37
e 31 44
e 31 47
e 31 57
e 31 61
e 31 71
e 31 72
e 31 77
e 31 81
e 31 83
e 31 88
e 31 89
e 32 33
e 32 34
e 32 41
e 32 51
e 32 59
e 32 61
e 32 67
e 32 75
e 32 79
e 32 80
e 32 82
e 33 42
e 33 46
e 33 58
e 33 65
e 33 82
e 33 87
e 34 36
e 34 43
e 34 45
e 34 48
e 34 52
e 34 56
e 34 65
e 34 69
e 34 71
e 34 72
e 34 73
e 34 86
e 34 89
e 34 90
e 35 43
e 35 48
e 35 49
e 35 56
e 35 57
e 35 72
e 35 80
e 35 84
e 36 37
e 36 38
e 36 51
e 36 52
e 36 61
e 36 69
e 36 73
e 36 74
e 36 75
e 36 78
e 36 87
e 36 89
e 37 38
e 37 48
e 37 62
e 37 68
e 37 69
e 37 70
e 37 75
e 37 79
e 37 80
e 37 89
e 38 40
e 38 42
e 38 44
e 38 46
e 38 49
e 38 51
e 38 53
e 38 58
e 38 59
e 38 70
e 38 73
e 38 74
e 38 88
e 39 44
e 39 56
e 39 57
e 39 58
e 39 59
e 39 61
e 39 62
e 39 68
e 39 69
e 39 75
e 39 76
e 39 81
e 39 82
e 39 83
e 40 41
e 40 44
e 40 45
e 40 49
e 40 50
e 40 52
e 40 54
e 40 59
e 40 62
e 40 67
e 40 78
e 41 43
e 41 44
e 41 45
e 41 50
e 41 51
e 41 53
e 41 54
e 41 58
e 41 67
e 41 69
e 41 73
e 41 75
e 41 85
e 42 46
e 42 57
e 42 72
e 42 83
e 43 64
e 43 65
e 43 78
e 43 79
e 43 87
e 43 88
e 44 46
e 44 48
e 44 55
e 44 58
e 44 60
e 44 68
e 44 79
e 45 53
e 45 54
e 45 58
e 45 67
e 45 74
e 45 75
e 45 81
e 46 47
e 46 48
e 46 50
e 46 69
e 46 73
e 46 74
e 46 89
e 46 90
e 47 48
e 47 54
e 47 61
e 47 63
e 47 71
e 47 76
e 48 51
e 48 52
e 48 53
e 48 55
e 48 59
e 48 60
e 48 67
e 48 72
e 48 77
e 48 78
e 48 80
e 48 84
e 48 87
e 49 55
e 49 68
e 49 71
e 49 74
e 49 84
e 50 51
e 50 52
e 50 53
e 50 55
e 50 58
e 50 61
e 50 63
e 50 65
e 50 80
e 50 82
e 50 83
e 50 84
e 51 55
e 51 63
e 51 74
e 51 86
e 51 89
e 51 90
e 52 60
e 52 62
e 52 64
e 52 68
e 52 70
e 52 74
e 52 75
e 52 82
e 53 57
e 53 58
e 53 69
e 53 72
e 53 78
e 53 80
e 53 81
e 53 85
e 53 86
e 53 90
e 54 55
e 54 62
e 54 69
e 54 70
e 54 71
e 54 73
e 55 60
e 55 74
e 55 79
e 55 81
e 55 83
e 56 58
e 56 68
e 56 71
e 56 73
e 56 77
e 56 80
e 56 82
e 56 86
e 57 58
e 57 61
e 57 80
e 57 88
e 58 60
e 58 63
e 58 72
e 58 73
e 58 75
e 58 76
e 58 85
e 58 88
e 59 66
e 59 67
e 59 68
e 59 71
e 59 78
e 59 84
e 59 85
e 60 65
e 60 89
e 61 65
e 61 72
e 61 81
e 61 82
e 62 68
e 62 73
e 62 74
e 62 77
e 62 81
e 62 85
e 62 87
e 62 88
e 63 66
e 63 68
e 63 69
e 63 70
e 63 72
e 63 78
e 64 66
e 64 67
e 64 68
e 64 73
e 64 74
e 64 75
e 64 76
e 64 78
e 64 82
e 64 86
e 64 90
e 65 66
e 65 79
e 65 80
e 65 82
e 65 89
e 66 67
e 66 73
e 66 79
e 66 87
e 67 69
e 67 75
e 67 77
e 67 79
e 67 80
e 67 83
e 67 84
e 67 90
e 68 69
e 68 71
e 68 75
e 68 78
e 68 79
e 68 84
e 69 70
e 69 74
e 69 80
e 69 83
e 70 79
e 70 81
e 70 88
e 70 90
e 71 78
e 71 83
e 71 85
e 71 90
e 72 75
e 72 78
e 72 80
e 72 90
e 73 84
e 73 85
e 73 87
e 73 88
e 74 80
e 74 81
e 74 84
e 74 90
e 75 79
e 75 84
e 75 87
e 75 89
e 76 85
e 77 86
e 77 90
e 78 80
e 79 81
e 79 82
e 79 89
e 80 83
e 80 85
e 81 82
e 81 84
e 81 88
e 81 89
e 82 84
e 83 86
e 83 87
e 84 88
e 85 88
e 86 89